data/solutions/planning/degenerate/moderate/weighting/degenerate_moderate_instance24_gurobi.sol
Elapsed time: 0.26
Nodes explored: 1371
Nodes left: 403
Relative gap: 0.01
Upper bound: 19711693441.0
Lower bound: 19709774423
C[0]=1314278373.0
C[1]=1313961510.0
C[2]=1313920455.0
C[3]=1313779507.0
y[0]=2
y[1]=3
y[2]=1
y[3]=1
y[4]=1
y[5]=1
y[6]=1
y[7]=1
y[8]=3
y[9]=2
y[10]=1
y[11]=0
y[12]=2
y[13]=2
y[14]=2
y[15]=2
y[16]=1
y[17]=1
y[18]=3
y[19]=3
y[20]=1
y[21]=1
y[22]=3
y[23]=3
y[24]=2
y[25]=1
y[26]=3
y[27]=0
y[28]=0
y[29]=2
y[30]=2
y[31]=2
y[32]=1
y[33]=3
y[34]=0
y[35]=2
y[36]=0
y[37]=3
y[38]=0
y[39]=0
